502.31,74.96,85.61
590.78,63.73,72.79
577.44,65.2,74.47
603.94,62.34,71.2
558.35,67.43,77.02
593.98,63.39,72.4
534.91,70.39,80.39
517.8,72.71,83.05
561.17,67.1,76.63
533.48,70.58,80.61
555.87,67.73,77.36
565.69,66.56,76.02
533.77,70.54,80.56
576.0,65.37,74.66
524.3,71.81,82.02
576.59,65.3,74.58
549.81,68.48,78.21
563.44,66.82,76.32
538.02,69.98,79.93
555.64,67.76,77.39
